letting n =  10
letting blocks =  [[1, 2], [1, 4], [1, 9], [1, 10], [2, 1], [2, 2], [2, 4], [2, 6], [3, 8], [4, 1], [4, 2], [4, 7], [4, 8], [5, 1], [5, 3], [5, 4], [5, 5], [5, 6], [5, 8], [6, 4], [6, 6], [6, 8], [7, 1], [8, 2], [8, 4], [8, 6], [8, 8], [9, 2], [9, 6], [9, 7], [9, 9], [10, 1], [10, 4], [10, 7]]
